
numDies = 20; % numero de dies
m = 3; % num linacs
s = 8; % num sessions per pacient
p = 45; % num pacients
tolerancia = 3; % diferencia maxima diaSesio i separacio
solicitud = 14; % dies maxims fins primera visita

disponible = [|  3,  3,  3,  4,  3, 17, 21, 13,  9, 15, 29, 35, 24, 31, 38, 49, 49, 49, 49, 49
              |  3,  4,  4,  7,  4, 17, 23, 17, 20, 22, 30, 45, 34, 35, 40, 49, 49, 49, 49, 49
              |  3,  5,  5,  7,  8, 23, 28, 24, 26, 29, 40, 49, 36, 39, 41, 49, 49, 49, 49, 49 |]; % capacitat de cada linac

duracio = [| 2, 2, 2, 2, 2, 2, 2, 2
            | 2, 2, 2, 2, 2, 2, 2, 2
            | 2, 2, 2, 2, 2, 2, 2, 2
            | 2, 2, 2, 2, 2, 2, 2, 2
            | 2, 2, 2, 2, 2, 2, 2, 2
            | 2, 2, 2, 2, 2, 2, 2, 2
            | 2, 2, 2, 2, 2, 2, 2, 2
            | 2, 2, 2, 2, 2, 2, 2, 2
            | 2, 2, 2, 2, 2, 2, 2, 2
            | 2, 2, 2, 2, 2, 2, 2, 2
            | 2, 2, 2, 2, 2, 2, 2, 2
            | 2, 2, 2, 2, 2, 2, 2, 2
            | 2, 2, 2, 2, 2, 2, 2, 2
            | 2, 2, 2, 2, 2, 3, 3, 3
            | 2, 2, 2, 2, 2, 3, 3, 3
            | 2, 2, 2, 2, 2, 3, 3, 3
            | 2, 2, 2, 2, 2, 3, 3, 3
            | 2, 2, 2, 2, 2, 3, 3, 3
            | 2, 2, 2, 2, 2, 3, 3, 3
            | 2, 2, 2, 2, 2, 3, 3, 3
            | 2, 2, 2, 2, 2, 3, 3, 3
            | 2, 2, 2, 2, 2, 3, 3, 3
            | 2, 2, 2, 2, 2, 3, 3, 3
            | 2, 2, 2, 2, 2, 3, 3, 3
            | 2, 2, 2, 2, 2, 3, 3, 3
            | 3, 3, 3, 3, 3, 2, 2, 2
            | 3, 3, 3, 3, 3, 2, 2, 2
            | 3, 3, 3, 3, 3, 2, 2, 2
            | 3, 3, 3, 3, 3, 2, 2, 2
            | 3, 3, 3, 3, 3, 2, 2, 2
            | 3, 3, 3, 3, 3, 2, 2, 2
            | 3, 3, 3, 3, 3, 2, 2, 2
            | 3, 3, 3, 3, 3, 2, 2, 2
            | 3, 3, 3, 3, 3, 3, 3, 3
            | 3, 3, 3, 3, 3, 3, 3, 3
            | 3, 3, 3, 3, 3, 3, 3, 3
            | 3, 3, 3, 3, 3, 3, 3, 3
            | 3, 3, 3, 3, 3, 3, 3, 3
            | 3, 3, 3, 3, 3, 3, 3, 3
            | 3, 3, 3, 3, 3, 3, 3, 3
            | 3, 3, 3, 3, 3, 3, 3, 3
            | 3, 3, 3, 3, 3, 3, 3, 3
            | 3, 3, 3, 3, 3, 3, 3, 3
            | 3, 3, 3, 3, 3, 3, 3, 3
            | 3, 3, 3, 3, 3, 3, 3, 3 |]; % duracion de la sesion (2 o 3 instants de temps)(30 o 45 mins)

separacio = [| 3, 1, 3, 1, 1, 2, 2
              | 3, 1, 3, 1, 1, 2, 2
              | 3, 1, 3, 1, 1, 2, 2
              | 3, 1, 3, 1, 1, 2, 2
              | 1, 2, 1, 2, 1, 2, 2
              | 1, 2, 1, 2, 1, 2, 2
              | 3, 1, 3, 1, 3, 1, 3
              | 3, 1, 3, 1, 3, 1, 3
              | 3, 1, 3, 1, 3, 1, 3
              | 3, 1, 3, 1, 3, 1, 3
              | 3, 1, 3, 1, 3, 1, 3
              | 3, 1, 3, 1, 3, 1, 3
              | 3, 1, 3, 1, 3, 1, 3
              | 1, 2, 1, 2, 1, 2, 2
              | 3, 1, 3, 1, 3, 1, 3
              | 3, 1, 3, 1, 3, 1, 3
              | 3, 1, 3, 1, 3, 1, 3
              | 3, 1, 3, 1, 3, 1, 3
              | 3, 1, 3, 1, 3, 1, 3
              | 3, 1, 3, 1, 3, 1, 3
              | 3, 1, 3, 1, 3, 1, 3
              | 3, 1, 3, 1, 3, 1, 3
              | 3, 1, 3, 1, 3, 1, 3
              | 3, 1, 3, 1, 3, 1, 3
              | 3, 1, 3, 1, 3, 1, 3
              | 3, 1, 3, 1, 1, 2, 2
              | 3, 1, 3, 1, 1, 2, 2
              | 1, 2, 1, 2, 1, 2, 2
              | 3, 1, 3, 1, 3, 1, 3
              | 3, 1, 3, 1, 3, 1, 3
              | 3, 1, 3, 1, 3, 1, 3
              | 3, 1, 3, 1, 3, 1, 3
              | 3, 1, 3, 1, 3, 1, 3
              | 3, 1, 3, 1, 3, 1, 3
              | 3, 1, 3, 1, 3, 1, 3
              | 3, 1, 3, 1, 3, 1, 3
              | 3, 1, 3, 1, 3, 1, 3
              | 3, 1, 3, 1, 1, 2, 2
              | 3, 1, 3, 1, 1, 2, 2
              | 1, 2, 1, 2, 1, 2, 2
              | 1, 2, 1, 2, 1, 2, 2
              | 1, 2, 1, 2, 1, 2, 2
              | 3, 1, 3, 1, 3, 1, 3
              | 3, 1, 3, 1, 3, 1, 3
              | 3, 1, 3, 1, 3, 1, 3 |]; % separacio ideal entre sesions 

grup = [1, 1, 1, 1, 2, 2, 3, 3, 3, 3, 3, 3, 3, 4, 5, 5, 5, 5, 5, 5, 5, 5, 5, 5, 5, 6, 6, 7, 8, 8, 8, 8, 8, 8, 8, 8, 8, 9, 9, 10, 10, 10, 11, 11, 11]; % pacients amb mateix grup son identics